results-heuristic-start/log/URT_06_makespan.log

Gurobi 10.0.1 (win64) logging started Sat Sep  9 14:28:32 2023

Set parameter LogFile to value "results-heuristic-start//log/URT_06_makespan.log"
Gurobi Optimizer version 10.0.1 build v10.0.1rc0 (win64)

CPU model: AMD Ryzen 7 3700X 8-Core Processor, instruction set [SSE2|AVX|AVX2]
Thread count: 8 physical cores, 16 logical processors, using up to 16 threads

Optimize a model with 95 rows, 100 columns and 337 nonzeros
Model fingerprint: 0xf4154ce8
Variable types: 9 continuous, 91 integer (90 binary)
Coefficient statistics:
  Matrix range     [1e+00, 1e+06]
  Objective range  [1e+00, 1e+00]
  Bounds range     [1e+00, 1e+00]
  RHS range        [1e+00, 3e+06]

User MIP start produced solution with objective 997 (0.02s)
Loaded user MIP start with objective 997

Presolve removed 52 rows and 74 columns
Presolve time: 0.00s
Presolved: 43 rows, 26 columns, 124 nonzeros
Variable types: 7 continuous, 19 integer (18 binary)
Found heuristic solution: objective 996.0000000

Root relaxation: objective 7.800000e+01, 10 iterations, 0.01 seconds (0.00 work units)

    Nodes    |    Current Node    |     Objective Bounds      |     Work
 Expl Unexpl |  Obj  Depth IntInf | Incumbent    BestBd   Gap | It/Node Time

     0     0   78.00000    0    6  996.00000   78.00000  92.2%     -    0s
H    0     0                     138.0000000   94.00000  31.9%     -    0s
H    0     0                     136.0000000   94.00000  30.9%     -    0s
     0     0  104.00000    0    6  136.00000  104.00000  23.5%     -    0s
     0     0  136.00000    0    4  136.00000  136.00000  0.00%     -    0s

Cutting planes:
  Implied bound: 2
  RLT: 2
  Relax-and-lift: 1

Explored 1 nodes (42 simplex iterations) in 0.06 seconds (0.00 work units)
Thread count was 16 (of 16 available processors)

Solution count 4: 136 138 996 997 

Optimal solution found (tolerance 1.00e-04)
Best objective 1.360000000000e+02, best bound 1.360000000000e+02, gap 0.0000%
Warning: constraint name "precedence between 0,1 to 0,0 if x_[j,l,h,z,i]=1" has a space
Warning: constraint name "precedence between 0,1 to 0,0 if x_[j,l,h,z,i]=1" has a space
Warning: default constraint names used to write mps file
